p edge 148 3777
e 1 2
e 1 7
e 1 9
e 1 17
e 1 18
e 1 21
e 1 23
e 1 24
e 1 26
e 1 29
e 1 32
e 1 33
e 1 36
e 1 39
e 1 41
e 1 42
e 1 47
e 1 49
e 1 57
e 1 59
e 1 60
e 1 64
e 1 69
e 1 80
e 1 81
e 1 82
e 1 86
e 1 89
e 1 90
e 1 93
e 1 96
e 1 97
e 1 100
e 1 103
e 1 113
e 1 115
e 1 116
e 1 117
e 1 120
e 1 121
e 1 126
e 1 127
e 1 131
e 1 132
e 1 135
e 1 137
e 1 138
e 1 140
e 1 141
e 1 143
e 1 145
e 1 147
e 1 148
e 2 4
e 2 7
e 2 8
e 2 9
e 2 16
e 2 20
e 2 21
e 2 30
e 2 34
e 2 35
e 2 38
e 2 47
e 2 50
e 2 52
e 2 57
e 2 59
e 2 61
e 2 62
e 2 64
e 2 65
e 2 68
e 2 74
e 2 76
e 2 78
e 2 79
e 2 80
e 2 87
e 2 92
e 2 98
e 2 101
e 2 104
e 2 105
e 2 110
e 2 111
e 2 112
e 2 113
e 2 116
e 2 122
e 2 124
e 2 128
e 2 130
e 2 134
e 2 139
e 2 141
e 2 142
e 2 143
e 2 144
e 2 145
e 2 147
e 2 148
e 3 8
e 3 16
e 3 17
e 3 21
e 3 25
e 3 26
e 3 32
e 3 34
e 3 35
e 3 36
e 3 47
e 3 48
e 3 50
e 3 54
e 3 58
e 3 60
e 3 61
e 3 62
e 3 63
e 3 66
e 3 67
e 3 68
e 3 70
e 3 75
e 3 78
e 3 79
e 3 80
e 3 81
e 3 89
e 3 93
e 3 107
e 3 113
e 3 122
e 3 123
e 3 124
e 3 125
e 3 126
e 3 127
e 3 130
e 3 136
e 3 139
e 3 140
e 3 144
e 3 145
e 4 6
e 4 8
e 4 10
e 4 12
e 4 14
e 4 15
e 4 17
e 4 19
e 4 20
e 4 21
e 4 22
e 4 23
e 4 27
e 4 30
e 4 31
e 4 35
e 4 41
e 4 42
e 4 43
e 4 48
e 4 58
e 4 70
e 4 72
e 4 79
e 4 80
e 4 82
e 4 83
e 4 84
e 4 85
e 4 87
e 4 90
e 4 94
e 4 100
e 4 101
e 4 104
e 4 105
e 4 106
e 4 113
e 4 114
e 4 117
e 4 118
e 4 121
e 4 125
e 4 127
e 4 128
e 4 130
e 4 140
e 4 143
e 4 145
e 4 146
e 4 148
e 5 11
e 5 12
e 5 14
e 5 15
e 5 24
e 5 25
e 5 30
e 5 31
e 5 33
e 5 35
e 5 42
e 5 44
e 5 50
e 5 52
e 5 53
e 5 54
e 5 59
e 5 63
e 5 68
e 5 70
e 5 73
e 5 76
e 5 90
e 5 91
e 5 92
e 5 93
e 5 94
e 5 97
e 5 99
e 5 106
e 5 109
e 5 111
e 5 113
e 5 121
e 5 122
e 5 126
e 5 127
e 5 128
e 5 130
e 5 132
e 5 136
e 5 141
e 6 7
e 6 21
e 6 22
e 6 23
e 6 25
e 6 26
e 6 27
e 6 28
e 6 29
e 6 32
e 6 35
e 6 37
e 6 39
e 6 41
e 6 42
e 6 44
e 6 46
e 6 48
e 6 55
e 6 58
e 6 60
e 6 61
e 6 64
e 6 68
e 6 71
e 6 76
e 6 78
e 6 81
e 6 82
e 6 87
e 6 91
e 6 93
e 6 96
e 6 102
e 6 106
e 6 107
e 6 109
e 6 110
e 6 111
e 6 114
e 6 116
e 6 118
e 6 123
e 6 128
e 6 132
e 6 134
e 6 136
e 6 140
e 6 141
e 6 145
e 6 148
e 7 10
e 7 11
e 7 13
e 7 16
e 7 20
e 7 21
e 7 26
e 7 27
e 7 28
e 7 30
e 7 31
e 7 34
e 7 42
e 7 50
e 7 55
e 7 61
e 7 64
e 7 69
e 7 71
e 7 74
e 7 75
e 7 79
e 7 91
e 7 92
e 7 96
e 7 101
e 7 102
e 7 107
e 7 108
e 7 110
e 7 114
e 7 116
e 7 117
e 7 118
e 7 122
e 7 123
e 7 130
e 7 131
e 7 133
e 7 134
e 7 141
e 7 142
e 7 144
e 7 145
e 7 148
e 8 10
e 8 13
e 8 14
e 8 17
e 8 18
e 8 19
e 8 21
e 8 23
e 8 25
e 8 26
e 8 29
e 8 31
e 8 35
e 8 39
e 8 40
e 8 41
e 8 45
e 8 50
e 8 53
e 8 54
e 8 56
e 8 58
e 8 60
e 8 62
e 8 63
e 8 66
e 8 70
e 8 73
e 8 76
e 8 78
e 8 80
e 8 81
e 8 87
e 8 88
e 8 90
e 8 94
e 8 97
e 8 99
e 8 100
e 8 101
e 8 103
e 8 110
e 8 113
e 8 114
e 8 115
e 8 116
e 8 119
e 8 120
e 8 123
e 8 125
e 8 130
e 8 133
e 8 135
e 8 139
e 8 142
e 9 12
e 9 19
e 9 21
e 9 25
e 9 26
e 9 27
e 9 31
e 9 32
e 9 34
e 9 35
e 9 37
e 9 40
e 9 42
e 9 43
e 9 45
e 9 48
e 9 59
e 9 61
e 9 66
e 9 67
e 9 68
e 9 71
e 9 78
e 9 82
e 9 85
e 9 90
e 9 91
e 9 95
e 9 100
e 9 106
e 9 113
e 9 117
e 9 126
e 9 128
e 9 129
e 9 134
e 9 136
e 9 142
e 9 144
e 10 12
e 10 13
e 10 19
e 10 20
e 10 22
e 10 23
e 10 25
e 10 27
e 10 31
e 10 32
e 10 35
e 10 36
e 10 38
e 10 40
e 10 43
e 10 45
e 10 46
e 10 49
e 10 50
e 10 60
e 10 61
e 10 63
e 10 65
e 10 69
e 10 71
e 10 72
e 10 73
e 10 76
e 10 79
e 10 89
e 10 93
e 10 94
e 10 97
e 10 99
e 10 109
e 10 111
e 10 112
e 10 114
e 10 117
e 10 119
e 10 121
e 10 122
e 10 125
e 10 132
e 10 136
e 10 140
e 10 143
e 11 12
e 11 15
e 11 16
e 11 21
e 11 26
e 11 27
e 11 29
e 11 30
e 11 31
e 11 33
e 11 36
e 11 38
e 11 39
e 11 41
e 11 55
e 11 56
e 11 57
e 11 58
e 11 60
e 11 62
e 11 64
e 11 69
e 11 70
e 11 72
e 11 73
e 11 76
e 11 82
e 11 85
e 11 90
e 11 92
e 11 94
e 11 99
e 11 101
e 11 103
e 11 104
e 11 105
e 11 107
e 11 112
e 11 114
e 11 120
e 11 121
e 11 126
e 11 128
e 11 129
e 11 130
e 11 131
e 11 137
e 11 138
e 11 139
e 11 142
e 11 143
e 11 144
e 11 148
e 12 14
e 12 16
e 12 23
e 12 25
e 12 30
e 12 33
e 12 39
e 12 41
e 12 43
e 12 44
e 12 48
e 12 49
e 12 50
e 12 53
e 12 54
e 12 55
e 12 56
e 12 57
e 12 58
e 12 59
e 12 61
e 12 64
e 12 66
e 12 67
e 12 75
e 12 76
e 12 81
e 12 83
e 12 85
e 12 95
e 12 96
e 12 98
e 12 99
e 12 100
e 12 103
e 12 105
e 12 107
e 12 117
e 12 118
e 12 131
e 12 133
e 12 136
e 12 137
e 12 138
e 12 139
e 12 143
e 12 144
e 12 147
e 13 14
e 13 15
e 13 18
e 13 19
e 13 21
e 13 25
e 13 27
e 13 32
e 13 36
e 13 37
e 13 40
e 13 42
e 13 44
e 13 45
e 13 53
e 13 55
e 13 57
e 13 58
e 13 59
e 13 60
e 13 61
e 13 64
e 13 65
e 13 68
e 13 71
e 13 78
e 13 79
e 13 80
e 13 86
e 13 92
e 13 93
e 13 94
e 13 95
e 13 97
e 13 98
e 13 99
e 13 100
e 13 101
e 13 105
e 13 106
e 13 112
e 13 115
e 13 116
e 13 119
e 13 120
e 13 122
e 13 124
e 13 125
e 13 128
e 13 129
e 13 133
e 13 137
e 13 140
e 13 142
e 13 144
e 13 145
e 13 146
e 14 20
e 14 22
e 14 23
e 14 26
e 14 28
e 14 29
e 14 34
e 14 35
e 14 36
e 14 44
e 14 49
e 14 52
e 14 54
e 14 58
e 14 62
e 14 63
e 14 64
e 14 66
e 14 67
e 14 73
e 14 75
e 14 78
e 14 84
e 14 85
e 14 89
e 14 92
e 14 94
e 14 98
e 14 104
e 14 106
e 14 110
e 14 112
e 14 115
e 14 116
e 14 117
e 14 119
e 14 129
e 14 130
e 14 131
e 14 134
e 14 138
e 14 139
e 14 141
e 15 18
e 15 20
e 15 21
e 15 23
e 15 24
e 15 25
e 15 29
e 15 31
e 15 33
e 15 38
e 15 44
e 15 46
e 15 49
e 15 51
e 15 55
e 15 56
e 15 60
e 15 63
e 15 64
e 15 74
e 15 76
e 15 77
e 15 78
e 15 82
e 15 84
e 15 86
e 15 87
e 15 89
e 15 97
e 15 101
e 15 104
e 15 108
e 15 109
e 15 115
e 15 116
e 15 117
e 15 119
e 15 123
e 15 125
e 15 128
e 15 133
e 15 136
e 15 138
e 15 140
e 15 142
e 15 145
e 15 147
e 16 20
e 16 25
e 16 27
e 16 29
e 16 30
e 16 33
e 16 39
e 16 42
e 16 44
e 16 48
e 16 49
e 16 50
e 16 59
e 16 62
e 16 64
e 16 65
e 16 66
e 16 68
e 16 75
e 16 76
e 16 77
e 16 78
e 16 81
e 16 82
e 16 90
e 16 93
e 16 95
e 16 103
e 16 108
e 16 116
e 16 119
e 16 120
e 16 121
e 16 122
e 16 123
e 16 125
e 16 128
e 16 131
e 16 134
e 16 140
e 17 18
e 17 19
e 17 26
e 17 27
e 17 29
e 17 33
e 17 34
e 17 38
e 17 41
e 17 42
e 17 45
e 17 46
e 17 48
e 17 52
e 17 54
e 17 55
e 17 56
e 17 57
e 17 58
e 17 60
e 17 61
e 17 62
e 17 63
e 17 69
e 17 71
e 17 76
e 17 77
e 17 82
e 17 83
e 17 84
e 17 89
e 17 97
e 17 100
e 17 102
e 17 103
e 17 106
e 17 110
e 17 112
e 17 114
e 17 116
e 17 117
e 17 119
e 17 123
e 17 124
e 17 136
e 17 137
e 17 139
e 17 140
e 17 142
e 17 147
e 18 19
e 18 20
e 18 22
e 18 24
e 18 25
e 18 26
e 18 29
e 18 30
e 18 32
e 18 36
e 18 37
e 18 39
e 18 42
e 18 43
e 18 48
e 18 50
e 18 51
e 18 55
e 18 59
e 18 69
e 18 71
e 18 72
e 18 75
e 18 76
e 18 80
e 18 81
e 18 82
e 18 83
e 18 84
e 18 85
e 18 86
e 18 88
e 18 89
e 18 92
e 18 100
e 18 104
e 18 105
e 18 106
e 18 107
e 18 111
e 18 112
e 18 121
e 18 125
e 18 134
e 18 139
e 18 140
e 18 141
e 18 146
e 18 148
e 19 21
e 19 26
e 19 30
e 19 33
e 19 34
e 19 40
e 19 41
e 19 42
e 19 44
e 19 45
e 19 47
e 19 48
e 19 51
e 19 52
e 19 53
e 19 54
e 19 59
e 19 62
e 19 65
e 19 69
e 19 72
e 19 73
e 19 74
e 19 78
e 19 80
e 19 83
e 19 84
e 19 85
e 19 86
e 19 97
e 19 98
e 19 115
e 19 118
e 19 120
e 19 123
e 19 137
e 19 140
e 19 141
e 19 142
e 19 143
e 19 146
e 19 147
e 19 148
e 20 24
e 20 32
e 20 33
e 20 37
e 20 38
e 20 40
e 20 43
e 20 49
e 20 50
e 20 54
e 20 55
e 20 57
e 20 60
e 20 63
e 20 66
e 20 68
e 20 69
e 20 73
e 20 74
e 20 75
e 20 76
e 20 77
e 20 81
e 20 85
e 20 90
e 20 96
e 20 97
e 20 98
e 20 99
e 20 101
e 20 106
e 20 108
e 20 109
e 20 111
e 20 120
e 20 121
e 20 123
e 20 124
e 20 130
e 20 133
e 20 134
e 20 139
e 20 140
e 20 141
e 20 145
e 20 146
e 21 22
e 21 23
e 21 27
e 21 30
e 21 33
e 21 38
e 21 42
e 21 43
e 21 45
e 21 50
e 21 53
e 21 55
e 21 56
e 21 60
e 21 68
e 21 71
e 21 75
e 21 76
e 21 77
e 21 79
e 21 83
e 21 87
e 21 89
e 21 92
e 21 96
e 21 98
e 21 99
e 21 102
e 21 103
e 21 105
e 21 108
e 21 109
e 21 111
e 21 114
e 21 121
e 21 122
e 21 123
e 21 125
e 21 126
e 21 127
e 21 130
e 21 134
e 21 141
e 21 142
e 21 145
e 21 147
e 21 148
e 22 24
e 22 27
e 22 32
e 22 35
e 22 38
e 22 39
e 22 43
e 22 47
e 22 48
e 22 50
e 22 52
e 22 55
e 22 56
e 22 57
e 22 60
e 22 66
e 22 69
e 22 73
e 22 74
e 22 75
e 22 77
e 22 78
e 22 88
e 22 93
e 22 94
e 22 95
e 22 97
e 22 99
e 22 102
e 22 103
e 22 104
e 22 106
e 22 111
e 22 115
e 22 118
e 22 119
e 22 122
e 22 123
e 22 125
e 22 126
e 22 127
e 22 129
e 22 131
e 22 133
e 22 134
e 22 136
e 22 141
e 22 143
e 22 145
e 22 146
e 22 147
e 23 26
e 23 27
e 23 28
e 23 32
e 23 33
e 23 37
e 23 38
e 23 39
e 23 40
e 23 49
e 23 51
e 23 55
e 23 56
e 23 59
e 23 62
e 23 64
e 23 73
e 23 74
e 23 77
e 23 84
e 23 86
e 23 88
e 23 92
e 23 93
e 23 95
e 23 96
e 23 100
e 23 102
e 23 107
e 23 110
e 23 115
e 23 118
e 23 126
e 23 132
e 23 138
e 23 146
e 24 25
e 24 29
e 24 30
e 24 45
e 24 46
e 24 51
e 24 53
e 24 58
e 24 59
e 24 61
e 24 63
e 24 66
e 24 67
e 24 70
e 24 71
e 24 79
e 24 80
e 24 84
e 24 86
e 24 88
e 24 89
e 24 91
e 24 96
e 24 98
e 24 100
e 24 108
e 24 109
e 24 114
e 24 115
e 24 116
e 24 121
e 24 122
e 24 125
e 24 126
e 24 132
e 24 138
e 24 141
e 24 142
e 24 143
e 24 144
e 24 146
e 24 147
e 24 148
e 25 28
e 25 30
e 25 32
e 25 35
e 25 37
e 25 38
e 25 40
e 25 42
e 25 43
e 25 46
e 25 47
e 25 48
e 25 49
e 25 50
e 25 55
e 25 56
e 25 57
e 25 58
e 25 61
e 25 69
e 25 74
e 25 77
e 25 84
e 25 87
e 25 88
e 25 90
e 25 92
e 25 96
e 25 99
e 25 101
e 25 106
e 25 107
e 25 109
e 25 110
e 25 111
e 25 114
e 25 116
e 25 122
e 25 123
e 25 133
e 25 135
e 25 144
e 25 146
e 25 148
e 26 27
e 26 29
e 26 30
e 26 35
e 26 37
e 26 40
e 26 41
e 26 49
e 26 50
e 26 52
e 26 53
e 26 56
e 26 59
e 26 64
e 26 67
e 26 70
e 26 72
e 26 80
e 26 82
e 26 89
e 26 93
e 26 94
e 26 97
e 26 102
e 26 107
e 26 110
e 26 112
e 26 113
e 26 126
e 26 129
e 26 130
e 26 134
e 26 137
e 26 140
e 26 141
e 26 144
e 26 145
e 26 146
e 27 29
e 27 30
e 27 33
e 27 34
e 27 37
e 27 39
e 27 40
e 27 41
e 27 43
e 27 45
e 27 47
e 27 51
e 27 54
e 27 57
e 27 59
e 27 60
e 27 61
e 27 62
e 27 64
e 27 65
e 27 67
e 27 68
e 27 70
e 27 72
e 27 74
e 27 75
e 27 77
e 27 82
e 27 83
e 27 87
e 27 89
e 27 91
e 27 94
e 27 95
e 27 102
e 27 103
e 27 112
e 27 113
e 27 114
e 27 118
e 27 120
e 27 124
e 27 127
e 27 131
e 27 137
e 27 141
e 27 142
e 27 145
e 27 146
e 27 147
e 27 148
e 28 31
e 28 32
e 28 34
e 28 39
e 28 42
e 28 46
e 28 47
e 28 49
e 28 55
e 28 56
e 28 57
e 28 60
e 28 61
e 28 71
e 28 72
e 28 73
e 28 76
e 28 79
e 28 81
e 28 85
e 28 86
e 28 88
e 28 89
e 28 96
e 28 101
e 28 104
e 28 108
e 28 113
e 28 114
e 28 115
e 28 116
e 28 120
e 28 121
e 28 123
e 28 126
e 28 129
e 28 130
e 28 137
e 28 142
e 28 144
e 28 146
e 28 147
e 29 30
e 29 31
e 29 32
e 29 36
e 29 40
e 29 43
e 29 45
e 29 47
e 29 49
e 29 59
e 29 62
e 29 63
e 29 65
e 29 66
e 29 71
e 29 72
e 29 73
e 29 77
e 29 78
e 29 82
e 29 83
e 29 84
e 29 87
e 29 90
e 29 91
e 29 92
e 29 93
e 29 94
e 29 96
e 29 101
e 29 102
e 29 104
e 29 107
e 29 109
e 29 110
e 29 112
e 29 113
e 29 114
e 29 117
e 29 119
e 29 130
e 29 132
e 29 133
e 29 134
e 29 135
e 29 136
e 29 139
e 29 141
e 29 142
e 30 41
e 30 46
e 30 49
e 30 64
e 30 75
e 30 81
e 30 95
e 30 96
e 30 98
e 30 99
e 30 101
e 30 105
e 30 106
e 30 109
e 30 110
e 30 112
e 30 115
e 30 122
e 30 125
e 30 134
e 30 139
e 30 140
e 30 146
e 30 147
e 30 148
e 31 33
e 31 37
e 31 39
e 31 46
e 31 50
e 31 52
e 31 55
e 31 58
e 31 61
e 31 63
e 31 66
e 31 68
e 31 69
e 31 72
e 31 75
e 31 77
e 31 78
e 31 80
e 31 81
e 31 83
e 31 87
e 31 88
e 31 91
e 31 98
e 31 99
e 31 107
e 31 108
e 31 110
e 31 116
e 31 120
e 31 122
e 31 123
e 31 125
e 31 126
e 31 128
e 31 129
e 31 132
e 31 136
e 31 137
e 32 33
e 32 36
e 32 39
e 32 42
e 32 51
e 32 56
e 32 58
e 32 59
e 32 60
e 32 64
e 32 67
e 32 71
e 32 74
e 32 75
e 32 79
e 32 80
e 32 82
e 32 83
e 32 86
e 32 90
e 32 91
e 32 92
e 32 93
e 32 95
e 32 99
e 32 101
e 32 104
e 32 107
e 32 109
e 32 110
e 32 112
e 32 115
e 32 119
e 32 120
e 32 121
e 32 123
e 32 125
e 32 126
e 32 129
e 32 130
e 32 132
e 32 137
e 32 140
e 32 143
e 32 145
e 32 146
e 33 37
e 33 38
e 33 49
e 33 50
e 33 51
e 33 53
e 33 54
e 33 62
e 33 63
e 33 64
e 33 65
e 33 68
e 33 70
e 33 71
e 33 75
e 33 76
e 33 81
e 33 84
e 33 85
e 33 89
e 33 90
e 33 94
e 33 101
e 33 105
e 33 109
e 33 114
e 33 115
e 33 120
e 33 121
e 33 123
e 33 124
e 33 129
e 33 130
e 33 132
e 33 133
e 33 134
e 33 138
e 33 139
e 33 140
e 34 35
e 34 39
e 34 42
e 34 43
e 34 46
e 34 47
e 34 48
e 34 51
e 34 54
e 34 60
e 34 62
e 34 64
e 34 67
e 34 69
e 34 76
e 34 79
e 34 85
e 34 86
e 34 87
e 34 97
e 34 99
e 34 100
e 34 101
e 34 107
e 34 109
e 34 111
e 34 120
e 34 127
e 34 129
e 34 131
e 34 133
e 34 135
e 34 137
e 34 138
e 34 139
e 34 142
e 34 146
e 34 147
e 34 148
e 35 44
e 35 45
e 35 46
e 35 50
e 35 52
e 35 53
e 35 54
e 35 57
e 35 65
e 35 67
e 35 68
e 35 79
e 35 87
e 35 88
e 35 105
e 35 106
e 35 111
e 35 112
e 35 115
e 35 117
e 35 119
e 35 122
e 35 123
e 35 126
e 35 129
e 35 138
e 36 37
e 36 38
e 36 42
e 36 43
e 36 45
e 36 47
e 36 50
e 36 52
e 36 58
e 36 60
e 36 61
e 36 62
e 36 63
e 36 66
e 36 67
e 36 68
e 36 72
e 36 75
e 36 77
e 36 78
e 36 79
e 36 80
e 36 81
e 36 89
e 36 99
e 36 104
e 36 105
e 36 106
e 36 107
e 36 111
e 36 114
e 36 121
e 36 122
e 36 124
e 36 126
e 36 128
e 36 129
e 36 131
e 36 132
e 36 147
e 36 148
e 37 38
e 37 39
e 37 40
e 37 44
e 37 45
e 37 48
e 37 53
e 37 54
e 37 56
e 37 57
e 37 58
e 37 59
e 37 61
e 37 67
e 37 72
e 37 83
e 37 85
e 37 88
e 37 92
e 37 95
e 37 99
e 37 102
e 37 103
e 37 105
e 37 106
e 37 108
e 37 109
e 37 111
e 37 112
e 37 113
e 37 115
e 37 123
e 37 124
e 37 127
e 37 130
e 37 132
e 37 133
e 37 135
e 37 139
e 37 148
e 38 41
e 38 43
e 38 44
e 38 49
e 38 50
e 38 51
e 38 52
e 38 56
e 38 58
e 38 61
e 38 68
e 38 71
e 38 74
e 38 81
e 38 82
e 38 83
e 38 85
e 38 87
e 38 93
e 38 96
e 38 100
e 38 103
e 38 106
e 38 108
e 38 111
e 38 113
e 38 115
e 38 116
e 38 117
e 38 118
e 38 120
e 38 125
e 38 126
e 38 127
e 38 128
e 38 131
e 38 135
e 38 140
e 38 141
e 38 144
e 39 45
e 39 48
e 39 49
e 39 63
e 39 64
e 39 67
e 39 68
e 39 70
e 39 79
e 39 80
e 39 84
e 39 86
e 39 96
e 39 97
e 39 99
e 39 101
e 39 103
e 39 104
e 39 105
e 39 108
e 39 114
e 39 117
e 39 119
e 39 120
e 39 123
e 39 134
e 39 137
e 39 138
e 39 139
e 39 141
e 39 145
e 39 148
e 40 42
e 40 47
e 40 49
e 40 57
e 40 60
e 40 61
e 40 63
e 40 72
e 40 76
e 40 80
e 40 82
e 40 84
e 40 90
e 40 92
e 40 94
e 40 95
e 40 96
e 40 97
e 40 98
e 40 100
e 40 101
e 40 102
e 40 103
e 40 106
e 40 110
e 40 112
e 40 122
e 40 132
e 40 134
e 40 135
e 40 137
e 40 138
e 40 140
e 41 44
e 41 46
e 41 50
e 41 52
e 41 53
e 41 57
e 41 60
e 41 62
e 41 63
e 41 69
e 41 70
e 41 71
e 41 77
e 41 80
e 41 84
e 41 85
e 41 88
e 41 89
e 41 94
e 41 95
e 41 99
e 41 100
e 41 103
e 41 106
e 41 111
e 41 112
e 41 120
e 41 122
e 41 125
e 41 128
e 41 134
e 41 137
e 41 138
e 41 139
e 41 140
e 41 142
e 41 145
e 41 146
e 42 43
e 42 45
e 42 48
e 42 52
e 42 54
e 42 55
e 42 56
e 42 60
e 42 64
e 42 65
e 42 66
e 42 70
e 42 74
e 42 75
e 42 78
e 42 79
e 42 81
e 42 82
e 42 83
e 42 84
e 42 91
e 42 95
e 42 96
e 42 98
e 42 100
e 42 101
e 42 105
e 42 108
e 42 109
e 42 111
e 42 113
e 42 120
e 42 121
e 42 124
e 42 128
e 42 141
e 43 46
e 43 48
e 43 50
e 43 51
e 43 58
e 43 60
e 43 61
e 43 65
e 43 66
e 43 77
e 43 79
e 43 81
e 43 84
e 43 86
e 43 88
e 43 96
e 43 98
e 43 106
e 43 110
e 43 115
e 43 116
e 43 118
e 43 123
e 43 124
e 43 126
e 43 127
e 43 130
e 43 142
e 43 143
e 43 145
e 43 146
e 43 147
e 44 46
e 44 47
e 44 48
e 44 49
e 44 53
e 44 56
e 44 64
e 44 65
e 44 76
e 44 78
e 44 81
e 44 87
e 44 91
e 44 95
e 44 99
e 44 101
e 44 102
e 44 114
e 44 116
e 44 121
e 44 126
e 44 136
e 44 137
e 44 141
e 44 147
e 44 148
e 45 47
e 45 49
e 45 50
e 45 51
e 45 53
e 45 56
e 45 58
e 45 61
e 45 66
e 45 73
e 45 85
e 45 87
e 45 93
e 45 98
e 45 101
e 45 103
e 45 106
e 45 107
e 45 108
e 45 110
e 45 113
e 45 115
e 45 117
e 45 119
e 45 121
e 45 124
e 45 125
e 45 126
e 45 129
e 45 130
e 45 134
e 45 135
e 45 136
e 45 139
e 45 141
e 45 143
e 45 144
e 45 146
e 46 47
e 46 48
e 46 55
e 46 59
e 46 64
e 46 66
e 46 73
e 46 75
e 46 79
e 46 80
e 46 85
e 46 91
e 46 92
e 46 94
e 46 101
e 46 104
e 46 105
e 46 107
e 46 108
e 46 110
e 46 111
e 46 113
e 46 116
e 46 119
e 46 121
e 46 124
e 46 127
e 46 132
e 46 144
e 46 145
e 47 48
e 47 49
e 47 50
e 47 51
e 47 54
e 47 57
e 47 58
e 47 60
e 47 61
e 47 62
e 47 63
e 47 64
e 47 65
e 47 66
e 47 67
e 47 70
e 47 71
e 47 72
e 47 73
e 47 74
e 47 75
e 47 76
e 47 80
e 47 83
e 47 86
e 47 91
e 47 93
e 47 96
e 47 97
e 47 98
e 47 101
e 47 103
e 47 104
e 47 106
e 47 107
e 47 108
e 47 109
e 47 115
e 47 117
e 47 118
e 47 124
e 47 128
e 47 131
e 47 135
e 47 136
e 47 137
e 47 146
e 47 147
e 47 148
e 48 49
e 48 50
e 48 51
e 48 54
e 48 55
e 48 59
e 48 61
e 48 62
e 48 66
e 48 68
e 48 70
e 48 72
e 48 84
e 48 85
e 48 92
e 48 96
e 48 103
e 48 107
e 48 113
e 48 116
e 48 118
e 48 124
e 48 125
e 48 133
e 48 134
e 48 135
e 48 136
e 48 141
e 48 146
e 48 148
e 49 50
e 49 54
e 49 57
e 49 60
e 49 63
e 49 64
e 49 65
e 49 69
e 49 76
e 49 77
e 49 80
e 49 82
e 49 83
e 49 84
e 49 90
e 49 93
e 49 95
e 49 96
e 49 97
e 49 99
e 49 100
e 49 102
e 49 104
e 49 105
e 49 106
e 49 107
e 49 109
e 49 111
e 49 115
e 49 118
e 49 119
e 49 125
e 49 129
e 49 130
e 49 136
e 49 138
e 49 145
e 49 148
e 50 52
e 50 56
e 50 63
e 50 66
e 50 71
e 50 77
e 50 86
e 50 88
e 50 89
e 50 90
e 50 93
e 50 98
e 50 103
e 50 104
e 50 105
e 50 106
e 50 108
e 50 112
e 50 117
e 50 119
e 50 123
e 50 126
e 50 132
e 50 133
e 50 137
e 50 138
e 50 141
e 50 143
e 50 146
e 50 148
e 51 53
e 51 54
e 51 60
e 51 66
e 51 68
e 51 69
e 51 70
e 51 71
e 51 72
e 51 80
e 51 81
e 51 82
e 51 83
e 51 85
e 51 86
e 51 87
e 51 91
e 51 95
e 51 98
e 51 101
e 51 102
e 51 103
e 51 104
e 51 105
e 51 108
e 51 109
e 51 110
e 51 111
e 51 112
e 51 114
e 51 117
e 51 120
e 51 124
e 51 128
e 51 131
e 51 134
e 51 135
e 51 136
e 51 139
e 51 140
e 51 146
e 52 53
e 52 55
e 52 57
e 52 58
e 52 61
e 52 62
e 52 70
e 52 71
e 52 75
e 52 76
e 52 78
e 52 79
e 52 81
e 52 82
e 52 85
e 52 103
e 52 107
e 52 109
e 52 110
e 52 113
e 52 115
e 52 120
e 52 121
e 52 122
e 52 125
e 52 129
e 52 132
e 52 136
e 52 138
e 52 139
e 52 144
e 52 145
e 52 146
e 53 55
e 53 58
e 53 61
e 53 62
e 53 68
e 53 71
e 53 75
e 53 78
e 53 80
e 53 82
e 53 83
e 53 86
e 53 87
e 53 93
e 53 100
e 53 101
e 53 106
e 53 108
e 53 109
e 53 111
e 53 113
e 53 115
e 53 116
e 53 121
e 53 122
e 53 124
e 53 125
e 53 126
e 53 127
e 53 130
e 53 137
e 53 145
e 53 147
e 54 58
e 54 65
e 54 66
e 54 69
e 54 74
e 54 77
e 54 80
e 54 81
e 54 85
e 54 87
e 54 90
e 54 91
e 54 101
e 54 104
e 54 118
e 54 119
e 54 125
e 54 127
e 54 129
e 54 133
e 54 136
e 54 140
e 54 141
e 54 143
e 54 144
e 54 145
e 54 146
e 54 148
e 55 56
e 55 60
e 55 61
e 55 62
e 55 64
e 55 65
e 55 66
e 55 68
e 55 70
e 55 73
e 55 74
e 55 75
e 55 76
e 55 78
e 55 80
e 55 81
e 55 85
e 55 87
e 55 90
e 55 91
e 55 92
e 55 96
e 55 101
e 55 104
e 55 107
e 55 112
e 55 113
e 55 114
e 55 115
e 55 119
e 55 125
e 55 127
e 55 129
e 55 130
e 55 132
e 55 135
e 55 136
e 55 137
e 55 138
e 55 141
e 55 145
e 55 146
e 55 147
e 56 58
e 56 65
e 56 67
e 56 68
e 56 69
e 56 71
e 56 74
e 56 76
e 56 81
e 56 82
e 56 87
e 56 88
e 56 91
e 56 92
e 56 93
e 56 96
e 56 98
e 56 99
e 56 104
e 56 105
e 56 107
e 56 112
e 56 113
e 56 118
e 56 120
e 56 123
e 56 125
e 56 127
e 56 131
e 56 132
e 56 133
e 56 134
e 56 137
e 56 138
e 56 140
e 56 146
e 56 148
e 57 58
e 57 60
e 57 61
e 57 65
e 57 67
e 57 69
e 57 73
e 57 74
e 57 86
e 57 89
e 57 94
e 57 95
e 57 104
e 57 109
e 57 110
e 57 117
e 57 121
e 57 131
e 57 132
e 57 140
e 57 141
e 57 143
e 57 146
e 58 61
e 58 63
e 58 67
e 58 76
e 58 77
e 58 78
e 58 83
e 58 86
e 58 89
e 58 91
e 58 93
e 58 94
e 58 95
e 58 96
e 58 100
e 58 102
e 58 110
e 58 117
e 58 119
e 58 127
e 58 131
e 58 133
e 58 143
e 58 145
e 59 60
e 59 61
e 59 63
e 59 64
e 59 65
e 59 67
e 59 69
e 59 77
e 59 83
e 59 93
e 59 95
e 59 98
e 59 100
e 59 104
e 59 107
e 59 108
e 59 110
e 59 117
e 59 120
e 59 123
e 59 125
e 59 126
e 59 132
e 59 133
e 59 141
e 59 144
e 59 147
e 60 62
e 60 67
e 60 71
e 60 73
e 60 75
e 60 80
e 60 83
e 60 85
e 60 87
e 60 89
e 60 91
e 60 92
e 60 107
e 60 108
e 60 109
e 60 112
e 60 115
e 60 123
e 60 124
e 60 125
e 60 127
e 60 129
e 60 131
e 60 132
e 60 135
e 60 136
e 60 137
e 60 145
e 60 147
e 61 62
e 61 65
e 61 68
e 61 69
e 61 77
e 61 78
e 61 79
e 61 81
e 61 84
e 61 85
e 61 87
e 61 90
e 61 91
e 61 95
e 61 98
e 61 107
e 61 111
e 61 114
e 61 115
e 61 116
e 61 117
e 61 119
e 61 120
e 61 127
e 61 129
e 61 137
e 61 140
e 61 142
e 61 145
e 61 147
e 62 69
e 62 70
e 62 71
e 62 72
e 62 75
e 62 78
e 62 80
e 62 82
e 62 84
e 62 85
e 62 86
e 62 88
e 62 92
e 62 93
e 62 94
e 62 96
e 62 97
e 62 98
e 62 100
e 62 102
e 62 103
e 62 112
e 62 114
e 62 116
e 62 119
e 62 121
e 62 122
e 62 124
e 62 127
e 62 128
e 62 129
e 62 136
e 62 140
e 62 141
e 62 142
e 62 144
e 62 148
e 63 65
e 63 69
e 63 73
e 63 81
e 63 84
e 63 102
e 63 106
e 63 108
e 63 110
e 63 112
e 63 113
e 63 114
e 63 116
e 63 117
e 63 119
e 63 122
e 63 124
e 63 127
e 63 128
e 63 131
e 63 132
e 63 134
e 63 136
e 63 137
e 63 139
e 63 142
e 63 143
e 63 144
e 63 146
e 64 69
e 64 71
e 64 75
e 64 76
e 64 77
e 64 79
e 64 81
e 64 82
e 64 83
e 64 98
e 64 106
e 64 108
e 64 113
e 64 114
e 64 116
e 64 117
e 64 118
e 64 123
e 64 124
e 64 125
e 64 130
e 64 131
e 64 132
e 64 133
e 64 134
e 64 143
e 64 147
e 65 88
e 65 90
e 65 92
e 65 96
e 65 97
e 65 98
e 65 100
e 65 103
e 65 105
e 65 106
e 65 110
e 65 122
e 65 124
e 65 125
e 65 131
e 65 132
e 65 134
e 65 140
e 65 142
e 66 69
e 66 70
e 66 72
e 66 74
e 66 76
e 66 79
e 66 81
e 66 90
e 66 92
e 66 94
e 66 96
e 66 98
e 66 100
e 66 101
e 66 106
e 66 107
e 66 116
e 66 120
e 66 123
e 66 125
e 66 131
e 66 133
e 66 134
e 66 136
e 66 139
e 66 141
e 67 69
e 67 75
e 67 76
e 67 77
e 67 79
e 67 80
e 67 81
e 67 82
e 67 84
e 67 86
e 67 91
e 67 92
e 67 93
e 67 94
e 67 96
e 67 98
e 67 100
e 67 102
e 67 104
e 67 106
e 67 107
e 67 111
e 67 113
e 67 121
e 67 123
e 67 128
e 67 131
e 67 138
e 67 142
e 67 144
e 67 145
e 67 147
e 68 72
e 68 73
e 68 74
e 68 75
e 68 76
e 68 86
e 68 88
e 68 89
e 68 90
e 68 91
e 68 92
e 68 95
e 68 96
e 68 102
e 68 103
e 68 104
e 68 105
e 68 106
e 68 108
e 68 119
e 68 123
e 68 125
e 68 128
e 68 129
e 68 135
e 68 137
e 68 138
e 68 139
e 68 140
e 68 142
e 69 70
e 69 75
e 69 78
e 69 80
e 69 85
e 69 87
e 69 89
e 69 93
e 69 94
e 69 99
e 69 100
e 69 101
e 69 103
e 69 104
e 69 107
e 69 110
e 69 112
e 69 113
e 69 123
e 69 126
e 69 127
e 69 129
e 69 130
e 69 131
e 69 134
e 69 140
e 69 145
e 70 80
e 70 84
e 70 88
e 70 90
e 70 91
e 70 94
e 70 95
e 70 98
e 70 99
e 70 100
e 70 101
e 70 102
e 70 104
e 70 106
e 70 109
e 70 111
e 70 115
e 70 118
e 70 119
e 70 133
e 70 134
e 70 135
e 70 137
e 70 138
e 70 139
e 70 144
e 70 147
e 71 72
e 71 75
e 71 76
e 71 77
e 71 82
e 71 85
e 71 88
e 71 90
e 71 92
e 71 94
e 71 97
e 71 99
e 71 105
e 71 117
e 71 121
e 71 124
e 71 126
e 71 128
e 71 136
e 71 142
e 71 143
e 71 145
e 71 146
e 72 73
e 72 74
e 72 81
e 72 82
e 72 83
e 72 84
e 72 88
e 72 91
e 72 93
e 72 94
e 72 95
e 72 99
e 72 102
e 72 106
e 72 109
e 72 111
e 72 115
e 72 116
e 72 117
e 72 119
e 72 124
e 72 126
e 72 128
e 72 131
e 72 132
e 72 133
e 72 136
e 72 137
e 72 141
e 72 143
e 72 144
e 72 145
e 72 146
e 73 76
e 73 78
e 73 79
e 73 82
e 73 84
e 73 85
e 73 87
e 73 90
e 73 91
e 73 97
e 73 98
e 73 101
e 73 102
e 73 106
e 73 109
e 73 110
e 73 111
e 73 113
e 73 114
e 73 118
e 73 120
e 73 121
e 73 134
e 73 138
e 73 145
e 74 75
e 74 77
e 74 80
e 74 87
e 74 94
e 74 96
e 74 108
e 74 112
e 74 114
e 74 117
e 74 122
e 74 123
e 74 124
e 74 125
e 74 126
e 74 128
e 74 129
e 74 130
e 74 131
e 74 138
e 74 143
e 74 144
e 74 146
e 74 147
e 74 148
e 75 77
e 75 78
e 75 82
e 75 83
e 75 84
e 75 88
e 75 90
e 75 91
e 75 94
e 75 95
e 75 96
e 75 97
e 75 101
e 75 106
e 75 110
e 75 111
e 75 114
e 75 116
e 75 117
e 75 120
e 75 122
e 75 123
e 75 125
e 75 126
e 75 128
e 75 132
e 75 136
e 75 139
e 75 140
e 75 141
e 75 142
e 75 144
e 75 148
e 76 78
e 76 80
e 76 84
e 76 85
e 76 86
e 76 101
e 76 102
e 76 104
e 76 105
e 76 107
e 76 109
e 76 110
e 76 116
e 76 120
e 76 123
e 76 124
e 76 125
e 76 128
e 76 129
e 76 130
e 76 132
e 76 138
e 76 142
e 76 144
e 76 147
e 76 148
e 77 81
e 77 82
e 77 83
e 77 86
e 77 88
e 77 90
e 77 95
e 77 97
e 77 98
e 77 100
e 77 101
e 77 102
e 77 105
e 77 109
e 77 111
e 77 119
e 77 127
e 77 128
e 77 133
e 77 137
e 77 138
e 77 139
e 77 140
e 77 141
e 77 144
e 77 145
e 77 146
e 77 147
e 78 79
e 78 80
e 78 81
e 78 82
e 78 84
e 78 86
e 78 87
e 78 89
e 78 90
e 78 93
e 78 95
e 78 100
e 78 101
e 78 103
e 78 105
e 78 108
e 78 110
e 78 115
e 78 116
e 78 121
e 78 124
e 78 125
e 78 132
e 78 134
e 78 136
e 78 138
e 78 141
e 78 143
e 78 144
e 78 148
e 79 80
e 79 86
e 79 87
e 79 97
e 79 98
e 79 99
e 79 103
e 79 107
e 79 110
e 79 111
e 79 112
e 79 115
e 79 122
e 79 123
e 79 124
e 79 127
e 79 128
e 79 130
e 79 134
e 79 136
e 79 139
e 79 140
e 79 141
e 79 142
e 79 143
e 79 145
e 79 146
e 80 82
e 80 83
e 80 86
e 80 87
e 80 91
e 80 93
e 80 97
e 80 101
e 80 103
e 80 105
e 80 107
e 80 109
e 80 117
e 80 118
e 80 119
e 80 120
e 80 121
e 80 125
e 80 126
e 80 127
e 80 130
e 80 131
e 80 132
e 80 137
e 80 140
e 81 86
e 81 87
e 81 95
e 81 97
e 81 99
e 81 101
e 81 102
e 81 104
e 81 105
e 81 111
e 81 113
e 81 123
e 81 124
e 81 125
e 81 126
e 81 127
e 81 131
e 81 133
e 81 135
e 81 137
e 81 140
e 81 142
e 81 144
e 81 147
e 82 88
e 82 90
e 82 91
e 82 92
e 82 93
e 82 95
e 82 97
e 82 99
e 82 102
e 82 104
e 82 106
e 82 112
e 82 115
e 82 116
e 82 117
e 82 118
e 82 121
e 82 124
e 82 125
e 82 128
e 82 129
e 82 130
e 82 134
e 82 135
e 82 136
e 82 137
e 82 141
e 82 144
e 82 146
e 82 148
e 83 87
e 83 91
e 83 92
e 83 94
e 83 95
e 83 96
e 83 97
e 83 104
e 83 107
e 83 109
e 83 113
e 83 114
e 83 115
e 83 118
e 83 121
e 83 122
e 83 123
e 83 124
e 83 128
e 83 129
e 83 135
e 83 142
e 83 146
e 83 148
e 84 97
e 84 98
e 84 104
e 84 111
e 84 112
e 84 121
e 84 125
e 84 132
e 84 133
e 84 142
e 84 145
e 84 147
e 84 148
e 85 86
e 85 90
e 85 91
e 85 93
e 85 100
e 85 101
e 85 106
e 85 110
e 85 117
e 85 121
e 85 131
e 85 133
e 85 136
e 85 139
e 85 140
e 85 141
e 86 88
e 86 90
e 86 91
e 86 92
e 86 96
e 86 99
e 86 101
e 86 102
e 86 103
e 86 104
e 86 109
e 86 110
e 86 111
e 86 112
e 86 117
e 86 121
e 86 125
e 86 128
e 86 130
e 86 135
e 86 136
e 86 139
e 86 142
e 86 143
e 86 144
e 86 147
e 87 92
e 87 94
e 87 97
e 87 98
e 87 104
e 87 106
e 87 107
e 87 109
e 87 112
e 87 115
e 87 119
e 87 120
e 87 122
e 87 123
e 87 125
e 87 127
e 87 128
e 87 129
e 87 133
e 87 134
e 87 136
e 87 137
e 87 139
e 87 142
e 87 145
e 87 148
e 88 90
e 88 91
e 88 94
e 88 102
e 88 106
e 88 109
e 88 110
e 88 111
e 88 112
e 88 113
e 88 121
e 88 122
e 88 123
e 88 124
e 88 129
e 88 131
e 88 135
e 88 136
e 88 145
e 88 148
e 89 91
e 89 92
e 89 97
e 89 101
e 89 104
e 89 107
e 89 108
e 89 112
e 89 113
e 89 116
e 89 119
e 89 120
e 89 123
e 89 126
e 89 129
e 89 130
e 89 132
e 89 135
e 89 138
e 89 141
e 89 143
e 89 146
e 90 91
e 90 92
e 90 97
e 90 100
e 90 101
e 90 111
e 90 112
e 90 114
e 90 118
e 90 123
e 90 124
e 90 128
e 90 130
e 90 132
e 90 138
e 90 140
e 90 142
e 90 145
e 90 147
e 91 94
e 91 95
e 91 105
e 91 108
e 91 109
e 91 114
e 91 119
e 91 121
e 91 126
e 91 131
e 91 132
e 91 135
e 91 138
e 91 139
e 91 140
e 91 146
e 91 148
e 92 93
e 92 94
e 92 95
e 92 96
e 92 98
e 92 100
e 92 103
e 92 104
e 92 105
e 92 107
e 92 111
e 92 116
e 92 118
e 92 120
e 92 122
e 92 125
e 92 127
e 92 128
e 92 129
e 92 134
e 92 136
e 92 141
e 92 142
e 92 143
e 92 146
e 92 147
e 93 97
e 93 100
e 93 103
e 93 104
e 93 105
e 93 106
e 93 114
e 93 117
e 93 120
e 93 123
e 93 125
e 93 126
e 93 127
e 93 131
e 93 132
e 93 134
e 93 135
e 93 136
e 93 139
e 93 143
e 93 144
e 93 147
e 93 148
e 94 95
e 94 96
e 94 100
e 94 103
e 94 104
e 94 109
e 94 112
e 94 115
e 94 116
e 94 118
e 94 121
e 94 124
e 94 125
e 94 130
e 94 133
e 94 139
e 94 140
e 94 141
e 94 143
e 94 145
e 94 146
e 95 99
e 95 101
e 95 102
e 95 111
e 95 115
e 95 120
e 95 123
e 95 133
e 95 136
e 95 138
e 95 139
e 95 141
e 96 99
e 96 105
e 96 106
e 96 107
e 96 110
e 96 112
e 96 113
e 96 114
e 96 116
e 96 122
e 96 125
e 96 132
e 96 133
e 96 135
e 96 136
e 96 137
e 96 139
e 96 140
e 96 142
e 96 144
e 97 98
e 97 107
e 97 108
e 97 110
e 97 112
e 97 113
e 97 119
e 97 122
e 97 123
e 97 124
e 97 126
e 97 130
e 97 140
e 97 142
e 97 145
e 97 148
e 98 100
e 98 101
e 98 102
e 98 104
e 98 105
e 98 106
e 98 108
e 98 109
e 98 115
e 98 118
e 98 120
e 98 124
e 98 125
e 98 126
e 98 130
e 98 132
e 98 133
e 98 134
e 98 137
e 98 138
e 98 141
e 98 144
e 98 145
e 98 147
e 99 100
e 99 102
e 99 103
e 99 105
e 99 106
e 99 116
e 99 118
e 99 120
e 99 139
e 99 142
e 99 143
e 99 146
e 100 103
e 100 105
e 100 106
e 100 107
e 100 111
e 100 112
e 100 114
e 100 115
e 100 117
e 100 119
e 100 121
e 100 122
e 100 127
e 100 139
e 100 140
e 100 141
e 100 143
e 100 147
e 101 102
e 101 105
e 101 111
e 101 113
e 101 116
e 101 117
e 101 123
e 101 127
e 101 133
e 101 136
e 101 141
e 101 143
e 101 144
e 101 148
e 102 105
e 102 106
e 102 107
e 102 117
e 102 119
e 102 120
e 102 126
e 102 128
e 102 131
e 102 132
e 102 134
e 102 135
e 102 139
e 102 140
e 102 147
e 102 148
e 103 107
e 103 109
e 103 111
e 103 112
e 103 114
e 103 120
e 103 122
e 103 125
e 103 126
e 103 131
e 103 132
e 103 139
e 103 140
e 103 141
e 103 142
e 103 144
e 103 147
e 103 148
e 104 106
e 104 107
e 104 113
e 104 115
e 104 117
e 104 118
e 104 125
e 104 126
e 104 129
e 104 136
e 104 141
e 104 142
e 104 144
e 104 145
e 105 106
e 105 107
e 105 108
e 105 118
e 105 120
e 105 125
e 105 126
e 105 127
e 105 130
e 105 131
e 105 138
e 105 147
e 106 108
e 106 109
e 106 118
e 106 122
e 106 126
e 106 130
e 106 135
e 106 139
e 106 143
e 106 146
e 106 148
e 107 108
e 107 110
e 107 112
e 107 113
e 107 114
e 107 117
e 107 118
e 107 121
e 107 131
e 107 138
e 107 139
e 107 140
e 107 141
e 107 146
e 107 147
e 107 148
e 108 109
e 108 111
e 108 112
e 108 114
e 108 117
e 108 119
e 108 131
e 108 132
e 108 139
e 108 145
e 108 146
e 109 110
e 109 112
e 109 113
e 109 116
e 109 121
e 109 126
e 109 128
e 109 129
e 109 135
e 109 137
e 109 140
e 109 143
e 109 145
e 109 146
e 110 111
e 110 112
e 110 116
e 110 121
e 110 123
e 110 124
e 110 126
e 110 130
e 110 132
e 110 137
e 110 138
e 110 140
e 110 141
e 111 113
e 111 119
e 111 120
e 111 124
e 111 126
e 111 132
e 111 143
e 111 145
e 112 113
e 112 115
e 112 116
e 112 123
e 112 124
e 112 128
e 112 131
e 112 132
e 112 136
e 112 137
e 112 145
e 112 147
e 113 114
e 113 115
e 113 118
e 113 121
e 113 123
e 113 125
e 113 126
e 113 127
e 113 132
e 113 134
e 113 135
e 113 139
e 113 144
e 113 146
e 114 115
e 114 116
e 114 117
e 114 119
e 114 120
e 114 123
e 114 127
e 114 130
e 114 133
e 114 135
e 114 136
e 114 138
e 114 140
e 114 143
e 115 116
e 115 117
e 115 118
e 115 127
e 115 128
e 115 132
e 115 134
e 115 141
e 115 142
e 115 143
e 115 146
e 115 147
e 116 119
e 116 120
e 116 121
e 116 125
e 116 127
e 116 128
e 116 136
e 116 140
e 116 143
e 116 146
e 117 119
e 117 124
e 117 128
e 117 131
e 117 137
e 117 138
e 117 140
e 117 141
e 117 142
e 117 143
e 117 145
e 118 119
e 118 122
e 118 124
e 118 125
e 118 128
e 118 129
e 118 132
e 118 133
e 118 135
e 118 136
e 118 138
e 118 144
e 118 148
e 119 123
e 119 124
e 119 125
e 119 128
e 119 130
e 119 133
e 119 136
e 119 137
e 119 138
e 119 140
e 119 141
e 119 142
e 119 144
e 119 145
e 119 147
e 120 124
e 120 126
e 120 127
e 120 128
e 120 129
e 120 130
e 120 131
e 120 132
e 120 133
e 120 140
e 120 141
e 120 143
e 120 144
e 120 145
e 120 147
e 121 126
e 121 134
e 121 138
e 121 145
e 121 146
e 122 123
e 122 131
e 122 135
e 122 137
e 122 139
e 122 142
e 122 144
e 123 124
e 123 125
e 123 126
e 123 127
e 123 130
e 123 132
e 123 134
e 123 137
e 123 138
e 123 144
e 123 148
e 124 127
e 124 128
e 124 129
e 124 133
e 124 135
e 124 137
e 124 142
e 124 144
e 125 128
e 125 130
e 125 131
e 125 134
e 125 136
e 125 138
e 125 140
e 125 141
e 125 142
e 125 144
e 126 129
e 126 133
e 126 137
e 126 138
e 126 142
e 126 145
e 126 146
e 126 147
e 126 148
e 127 129
e 127 130
e 127 131
e 127 137
e 127 140
e 127 142
e 127 144
e 128 130
e 128 131
e 128 137
e 128 140
e 128 145
e 128 146
e 129 131
e 129 133
e 129 134
e 129 139
e 129 142
e 129 146
e 129 147
e 130 131
e 130 137
e 130 138
e 130 140
e 130 146
e 131 137
e 131 142
e 131 147
e 132 133
e 132 143
e 132 145
e 132 147
e 133 134
e 133 136
e 133 137
e 133 142
e 134 135
e 134 136
e 134 137
e 134 140
e 134 141
e 134 142
e 134 143
e 134 146
e 135 136
e 135 144
e 135 148
e 136 141
e 136 142
e 136 145
e 136 147
e 137 140
e 137 143
e 137 144
e 137 146
e 137 148
e 138 142
e 138 144
e 138 146
e 138 147
e 138 148
e 139 147
e 139 148
e 140 143
e 140 144
e 140 147
e 141 144
e 141 146
e 142 143
e 142 144
e 142 146
e 143 144
e 144 145
e 144 147
e 144 148
e 145 146
e 145 147
